Route 1: 28 9 66 71 35 34 65
Route 2: 30 62 47 36 49 46 60
Route 3: 63 19 64 90 32 20 77
Route 4: 27 88 31 70 81 51 3 78 33 80
Route 5: 69 12 79 29 67 54 24
Route 6: 52 82 8 18 7 10 11 48 89
Route 7: 39 75 73 23 50 1 68
Route 8: 72 41 55 76 26 4 25
Route 9: 2 21 22 56 57 43 15 42 13
Route 10: 83 17 61 16 84 38 45
Route 11: 14 44 5 85 86 96 74 58
Route 12: 98 53 40 94 6 91 37 93 100
Route 13: 95 59 99 92 87 97
Vehicles: 13
Distance: 1728.76
